Traveling Salesman Problem/TSP_generados/Aleatorio1621103247_6.tsp
NAME: Aleatorio1621103247_6.tsp
COMMENT: Randomly generated scenario
TYPE: TSP
DIMENSION: 6
EDGE_WEIGHT_TYPE: ATT
NODE_COORD_SECTION
1 2.63 24.83
2 23.67 4.54
3 17.92 18.5
4 16.24 0.85
5 37.75 18.1
6 35.03 26.74
