Traveling Salesman Problem/TSP_generados/Aleatorio1621103247_6.opt.tour
NAME: Aleatorio1621103247_6.opt.tour
COMMENT: Optimal solution for Aleatorio1621103247_6 (100.01409052478694)
TYPE: TOUR
DIMENSION: 6
TOUR_SECTION
1 3 6 5 2 4
-1
EOF
